Cu  O Cs  H                             
   1.00000000000000     
    14.5418990584000003    0.0000000000000000    0.0000000000000000
     0.0000000000000000   14.5418990584000003    0.0000000000000000
     0.0000000000000000    0.0000000000000000   32.1224676193083027
   Cu   O    Cs   H 
   128    87     2   174
Selective dynamics
Direct
  0.0000000000000000  0.1250000000000000  0.0565877259999965   F   F   F
  0.0000000000000000  0.3750000000000000  0.0565877259999965   F   F   F
  0.0000000000000000  0.6250000000000000  0.0565877259999965   F   F   F
  0.0000000000000000  0.8750000000000000  0.0565877259999965   F   F   F
  0.1250000000000000  0.0000000000000000  0.0565877259999965   F   F   F
  0.1250000000000000  0.2500000000000000  0.0565877259999965   F   F   F
  0.1250000000000000  0.5000000000000000  0.0565877259999965   F   F   F
  0.1250000000000000  0.7500000000000000  0.0565877259999965   F   F   F
  0.2500000000000000  0.1250000000000000  0.0565877259999965   F   F   F
  0.2500000000000000  0.3750000000000000  0.0565877259999965   F   F   F
  0.2500000000000000  0.6250000000000000  0.0565877259999965   F   F   F
  0.2500000000000000  0.8750000000000000  0.0565877259999965   F   F   F
  0.3750000000000000  0.0000000000000000  0.0565877259999965   F   F   F
  0.3750000000000000  0.2500000000000000  0.0565877259999965   F   F   F
  0.3750000000000000  0.5000000000000000  0.0565877259999965   F   F   F
  0.3750000000000000  0.7500000000000000  0.0565877259999965   F   F   F
  0.5000000000000000  0.1250000000000000  0.0565877259999965   F   F   F
  0.5000000000000000  0.3750000000000000  0.0565877259999965   F   F   F
  0.5000000000000000  0.6250000000000000  0.0565877259999965   F   F   F
  0.5000000000000000  0.8750000000000000  0.0565877259999965   F   F   F
  0.6250000000000000  0.0000000000000000  0.0565877259999965   F   F   F
  0.6250000000000000  0.2500000000000000  0.0565877259999965   F   F   F
  0.6250000000000000  0.5000000000000000  0.0565877259999965   F   F   F
  0.6250000000000000  0.7500000000000000  0.0565877259999965   F   F   F
  0.7500000000000000  0.1250000000000000  0.0565877259999965   F   F   F
  0.7500000000000000  0.3750000000000000  0.0565877259999965   F   F   F
  0.7500000000000000  0.6250000000000000  0.0565877259999965   F   F   F
  0.7500000000000000  0.8750000000000000  0.0565877259999965   F   F   F
  0.8750000000000000  0.0000000000000000  0.0565877259999965   F   F   F
  0.8750000000000000  0.2500000000000000  0.0565877259999965   F   F   F
  0.8750000000000000  0.5000000000000000  0.0565877259999965   F   F   F
  0.8750000000000000  0.7500000000000000  0.0565877259999965   F   F   F
  0.0000000000000000  0.0000000000000000  0.1131754500000000   F   F   F
  0.0000000000000000  0.2500000000000000  0.1131754500000000   F   F   F
  0.0000000000000000  0.5000000000000000  0.1131754500000000   F   F   F
  0.0000000000000000  0.7500000000000000  0.1131754500000000   F   F   F
  0.1250000000000000  0.1250000000000000  0.1131754500000000   F   F   F
  0.1250000000000000  0.3750000000000000  0.1131754500000000   F   F   F
  0.1250000000000000  0.6250000000000000  0.1131754500000000   F   F   F
  0.1250000000000000  0.8750000000000000  0.1131754500000000   F   F   F
  0.2500000000000000  0.0000000000000000  0.1131754500000000   F   F   F
  0.2500000000000000  0.2500000000000000  0.1131754500000000   F   F   F
  0.2500000000000000  0.5000000000000000  0.1131754500000000   F   F   F
  0.2500000000000000  0.7500000000000000  0.1131754500000000   F   F   F
  0.3750000000000000  0.1250000000000000  0.1131754500000000   F   F   F
  0.3750000000000000  0.3750000000000000  0.1131754500000000   F   F   F
  0.3750000000000000  0.6250000000000000  0.1131754500000000   F   F   F
  0.3750000000000000  0.8750000000000000  0.1131754500000000   F   F   F
  0.5000000000000000  0.0000000000000000  0.1131754500000000   F   F   F
  0.5000000000000000  0.2500000000000000  0.1131754500000000   F   F   F
  0.5000000000000000  0.5000000000000000  0.1131754500000000   F   F   F
  0.5000000000000000  0.7500000000000000  0.1131754500000000   F   F   F
  0.6250000000000000  0.1250000000000000  0.1131754500000000   F   F   F
  0.6250000000000000  0.3750000000000000  0.1131754500000000   F   F   F
  0.6250000000000000  0.6250000000000000  0.1131754500000000   F   F   F
  0.6250000000000000  0.8750000000000000  0.1131754500000000   F   F   F
  0.7500000000000000  0.0000000000000000  0.1131754500000000   F   F   F
  0.7500000000000000  0.2500000000000000  0.1131754500000000   F   F   F
  0.7500000000000000  0.5000000000000000  0.1131754500000000   F   F   F
  0.7500000000000000  0.7500000000000000  0.1131754500000000   F   F   F
  0.8750000000000000  0.1250000000000000  0.1131754500000000   F   F   F
  0.8750000000000000  0.3750000000000000  0.1131754500000000   F   F   F
  0.8750000000000000  0.6250000000000000  0.1131754500000000   F   F   F
  0.8750000000000000  0.8750000000000000  0.1131754500000000   F   F   F
  0.0002817911700035  0.1247241399999979  0.1696457199999983   F   F   F
  0.0003335164600031  0.3745884300000029  0.1683635799999976   F   F   F
  0.0001575441200004  0.6246946999999992  0.1696021799999983   F   F   F
  0.0003407279800030  0.8746869100000012  0.1683629799999977   F   F   F
  0.1252861199999984  0.9997442000000021  0.1696398200000004   F   F   F
  0.1253666799999991  0.2496470399999993  0.1683801000000003   F   F   F
  0.1252379700000006  0.4996597600000001  0.1696236299999967   F   F   F
  0.1252978500000026  0.7496381500000027  0.1683743500000006   F   F   F
  0.2503692299999969  0.1246484099999989  0.1683781500000023   F   F   F
  0.2502837899999975  0.3747334899999970  0.1696488600000023   F   F   F
  0.2502756499999990  0.6246495099999976  0.1683987400000007   F   F   F
  0.2502448299999998  0.8746400499999964  0.1696837300000027   F   F   F
  0.3753322299999979  0.9995874800000024  0.1683928400000028   F   F   F
  0.3752835700000006  0.2497239799999988  0.1696492800000016   F   F   F
  0.3753423699999985  0.4996838499999967  0.1683865600000019   F   F   F
  0.3751214199999993  0.7496993299999986  0.1697040000000030   F   F   F
  0.5002642399999999  0.1247106699999989  0.1696445299999993   F   F   F
  0.5003452099999990  0.3746621599999997  0.1683815399999986   F   F   F
  0.5002367299999975  0.6247403599999970  0.1696553499999993   F   F   F
  0.5002906300000021  0.8746073000000010  0.1683924200000035   F   F   F
  0.6252643400000011  0.9997070200000024  0.1696438900000032   F   F   F
  0.6253431299999974  0.2496444000000011  0.1683796299999969   F   F   F
  0.6252610299999972  0.4997300499999966  0.1696497599999987   F   F   F
  0.6253452600000031  0.7496472899999986  0.1683796399999977   F   F   F
  0.7503427700000032  0.1246438800000007  0.1683790599999995   F   F   F
  0.7502647499999995  0.3747093899999996  0.1696502100000004   F   F   F
  0.7503434500000026  0.6246473100000003  0.1683777699999993   F   F   F
  0.7502664000000010  0.8747300100000004  0.1696455299999968   F   F   F
  0.8753444500000001  0.9996629199999987  0.1683768400000005   F   F   F
  0.8752661999999987  0.2497094399999966  0.1696503599999986   F   F   F
  0.8752959300000001  0.4996080700000007  0.1683645700000014   F   F   F
  0.8752306199999964  0.7497352299999989  0.1696347700000018   F   F   F
  0.9906248320983321  0.9986601745581802  0.2235784805941085   T   T   T
  0.9899446651903944  0.2499588008697581  0.2218210831582106   T   T   T
  0.0080324441769020  0.5025455000196855  0.2243816653866645   T   T   T
  0.9994732190290124  0.7546326986379690  0.2274138928423198   T   T   T
  0.1240973149902764  0.1295232789399059  0.2238301651312830   T   T   T
  0.1204024022230618  0.3646032785126157  0.2195964098818902   T   T   T
  0.1258682628789632  0.6232023266522477  0.2204536521417031   T   T   T
  0.1313824029444350  0.8783717115080686  0.2204010506042829   T   T   T
  0.2433370783788866  0.9997807557636067  0.2217136171633612   T   T   T
  0.2571237248796702  0.2457608679882392  0.2235933462438750   T   T   T
  0.2545910117113749  0.4956493279252784  0.2186379223950229   T   T   T
  0.2522144135106589  0.7569023042575745  0.2269931347104399   T   T   T
  0.3756544377998791  0.1220269633216232  0.2218483564901704   T   T   T
  0.3816536253896382  0.3732204477042663  0.2217768736050246   T   T   T
  0.3698396444162764  0.6328322393468402  0.2241221353891313   T   T   T
  0.3712829241717449  0.8793285042461786  0.2241895321433017   T   T   T
  0.5055933003055257  0.9984112843433000  0.2230105161053651   T   T   T
  0.4986481684479224  0.2473109249844384  0.2233446238266016   T   T   T
  0.4939904683151770  0.5051174073880426  0.2233711214466728   T   T   T
  0.5020690291247382  0.7425182014703352  0.2255363226938778   T   T   T
  0.6276854102568967  0.1288174990883330  0.2229879511407623   T   T   T
  0.6199330790189340  0.3831578749460457  0.2248300034531497   T   T   T
  0.6247208630541801  0.6276433343473953  0.2287851090029960   T   T   T
  0.6179724763599286  0.8725726539451407  0.2207214871626338   T   T   T
  0.7515587823485471  0.9994796524260311  0.2269048622291573   T   T   T
  0.7530907356352070  0.2696946758329805  0.2210401517908727   T   T   T
  0.7478390420629333  0.4969178258094249  0.2212977947048256   T   T   T
  0.7449890839095300  0.7466955752258067  0.2176780528047497   T   T   T
  0.8639588214636372  0.1379595217547140  0.2210881120091414   T   T   T
  0.8778192736822035  0.3807662584229758  0.2215311623847623   T   T   T
  0.8830386144716759  0.6256386894510928  0.2209736772579267   T   T   T
  0.8763235358182800  0.8634468848273266  0.2213747570154591   T   T   T
  0.1708406917521155  0.2149913979063461  0.4567886121773807   T   T   T
  0.5387367712373216  0.7994372915394014  0.3639339561474377   T   T   T
  0.1218565513083779  0.3255367304376846  0.6809477919973884   T   T   T
  0.3738391398200684  0.5296124513031909  0.6527705218217406   T   T   T
  0.5590285805789492  0.2222543705207411  0.4604690574367040   T   T   T
  0.7485615232310894  0.2167042043961508  0.4585041703520620   T   T   T
  0.8518251936673904  0.5268407710221208  0.6002919059243603   T   T   T
  0.1367155131540722  0.0767358252454588  0.6051955436044397   T   T   T
  0.7590624904457322  0.9222409251940176  0.3451395994221040   T   T   T
  0.8229264605939229  0.2629827667195558  0.5707808536629004   T   T   T
  0.5113659619029977  0.1600480969220256  0.3921815505138448   T   T   T
  0.3689256133721091  0.9563973085453056  0.4677191731308183   T   T   T
  0.3472508388271903  0.1861016614204070  0.3236516528232451   T   T   T
  0.5063311423566061  0.3537786278889379  0.3129909819317269   T   T   T
  0.1833835740677218  0.2216869151677681  0.5460907704473569   T   T   T
  0.3606794750660958  0.9751237588221950  0.5479216930829427   T   T   T
  0.8257787534536175  0.0696201534482771  0.6517092841394208   T   T   T
  0.2310189577904145  0.0663454675236888  0.3598544992514044   T   T   T
  0.1730355368475417  0.4952647625343809  0.6219503684040870   T   T   T
  0.9216960506984563  0.7990561764946505  0.3283957907097169   T   T   T
  0.3243868657331389  0.4662478338759629  0.3105409286830156   T   T   T
  0.5741762311711442  0.1842270750069627  0.6679045271704148   T   T   T
  0.9833426016338424  0.9507666197049224  0.6340537743800077   T   T   T
  0.5926001028545839  0.5042216473313411  0.5200359836838154   T   T   T
  0.9339825517996249  0.3523648681660033  0.5099522418076847   T   T   T
  0.2013785165290801  0.3007070788905211  0.3140557106848603   T   T   T
  0.9480509956682810  0.2690322253024866  0.6333014218444116   T   T   T
  0.6195914432768741  0.1356852177206751  0.5344386236496089   T   T   T
  0.0553908331967137  0.7225623364779836  0.5054074369553624   T   T   T
  0.7546176892694931  0.0989542296437071  0.3128800675075701   T   T   T
  0.1888244774355167  0.8265948704340774  0.7021634478640341   T   T   T
  0.3568585338610856  0.1581948506363320  0.5669231627882317   T   T   T
  0.0597010511990868  0.6236759714457463  0.5936861995302898   T   T   T
  0.3560630916524446  0.7561266773017625  0.4558567305752338   T   T   T
  0.7380149169902073  0.5547980129859992  0.3805313397282789   T   T   T
  0.6536032282100792  0.0178072720159922  0.6631116752763314   T   T   T
  0.2603095321203120  0.4144061967438574  0.5599808217104222   T   T   T
  0.0062476490354418  0.3017444799277254  0.4259056037933762   T   T   T
  0.4820158915161259  0.9350341432378269  0.6558821432619655   T   T   T
  0.8298001190010907  0.0960954224775775  0.5426201715953392   T   T   T
  0.0381276637223674  0.9759412459809602  0.4348799022681621   T   T   T
  0.7032162330485546  0.6686156039615804  0.6122549171826441   T   T   T
  0.4112577923838456  0.1199108168492118  0.6459917782859897   T   T   T
  0.3031287593048960  0.3351729069783232  0.4674268214889485   T   T   T
  0.5522844073706726  0.4147932233057260  0.4508091778057489   T   T   T
  0.2064796823361035  0.9131508417515736  0.5728310512216012   T   T   T
  0.3901751386822205  0.4536387042612074  0.4093864392077436   T   T   T
  0.0557426098576536  0.3356605356426319  0.5768267397940603   T   T   T
  0.4875464013744037  0.4246311657269286  0.5843455127442863   T   T   T
  0.7410057056460289  0.8179833149967125  0.5647920182941937   T   T   T
  0.1950513120297567  0.1137056910248403  0.6872533894181445   T   T   T
  0.3075531488719305  0.6307108142018351  0.3917042077916781   T   T   T
  0.5361735754261479  0.6840509780764257  0.5647473292334355   T   T   T
  0.5368732490400356  0.6997828529337099  0.4344763032145377   T   T   T
  0.2439466662086370  0.6860874150598536  0.5113875805160327   T   T   T
  0.0828887154118414  0.4657526509893802  0.4355939479827790   T   T   T
  0.9815690639688780  0.6208114742621407  0.4383378644663618   T   T   T
  0.4447537650795115  0.2875699215776258  0.5214337472080471   T   T   T
  0.4875993600424690  0.8548906209787809  0.5776640642301992   T   T   T
  0.2155747531500629  0.4952513040802077  0.4924508847709763   T   T   T
  0.6631565959296960  0.7936864692473883  0.3053433298099300   T   T   T
  0.0503541786676093  0.9280545297936409  0.3555516837859429   T   T   T
  0.2363277120105921  0.8987792457554562  0.3210300747950435   T   T   T
  0.5356567723320357  0.9612194820842027  0.4153113743811130   T   T   T
  0.1460343952796842  0.5051053031382874  0.3604021320685419   T   T   T
  0.3676214616212847  0.7933706803735177  0.6767744813506997   T   T   T
  0.3419991924991616  0.6687551478289101  0.5946206185854486   T   T   T
  0.9325180134669399  0.3295486381633496  0.3455553911476667   T   T   T
  0.6408788468681251  0.2623071262855493  0.5920677163882431   T   T   T
  0.7913746438142254  0.6592613169261374  0.3131617982949987   T   T   T
  0.8669984815494800  0.0593324179153494  0.4148193554823169   T   T   T
  0.8920775698995612  0.9287467614225761  0.5651047922998480   T   T   T
  0.7925701354535678  0.4739302921503274  0.5204288930036406   T   T   T
  0.7829325005956873  0.3602451788968389  0.3934276233641334   T   T   T
  0.7382149454885889  0.9197136247241507  0.4302565524504051   T   T   T
  0.0421837665646195  0.9158869043269708  0.5153347504087438   T   T   T
  0.4647172182310247  0.6506801292236066  0.7159231910984120   T   T   T
  0.6509280068506563  0.6707378475738792  0.6964388809225247   T   T   T
  0.9900479565642837  0.4924170080419808  0.3165064913459394   T   T   T
  0.6404198884109314  0.2309327514983731  0.3461844174954273   T   T   T
  0.2131656537968052  0.0347022990641852  0.4361844793207785   T   T   T
  0.0008875689718894  0.6691396801810406  0.3571195902277184   T   T   T
  0.7160557645454143  0.7686123142005895  0.4784172509195786   T   T   T
  0.8012953711768861  0.6001539899359140  0.4600693946266611   T   T   T
  0.3599373127237729  0.7511117603696394  0.3193027741114401   T   T   T
  0.6356049824333745  0.9725174977400566  0.5812898035443254   T   T   T
  0.0881361990268009  0.8025883542519879  0.6317693210855071   T   T   T
  0.5357050433325260  0.5306142770024667  0.3546230709846286   T   T   T
  0.0200927417372700  0.1366430454536929  0.3355034889981439   T   T   T
  0.1887027862165767  0.1573197659943407  0.4439113408905711   T   T   T
  0.4789810995389895  0.7905473532225124  0.3532649663576132   T   T   T
  0.5842354978639767  0.7935006518788077  0.3389652833254932   T   T   T
  0.8169374784594426  0.8908581083494463  0.3364772283269513   T   T   T
  0.0632278336058270  0.2954606217452608  0.6749822616187526   T   T   T
  0.4228805409451762  0.4970910055037179  0.6387326047360619   T   T   T
  0.3092462155698758  0.5063134116917264  0.6509978470677082   T   T   T
  0.5145259287131951  0.2283626967109311  0.4836191739999431   T   T   T
  0.5378300001462284  0.1897566053382846  0.4345926887485900   T   T   T
  0.6783036378783173  0.2163249911119263  0.4605571526595775   T   T   T
  0.4601481989377014  0.9995681021820377  0.6490660808118218   T   T   T
  0.1417879616410329  0.1225746332085514  0.5828983160973764   T   T   T
  0.2803030519098417  0.3969511745735804  0.4726895623504230   T   T   T
  0.3505520543278426  0.3230259901922146  0.4884053595700057   T   T   T
  0.7139696350203696  0.8905292683652860  0.3279452740381891   T   T   T
  0.0154853401444205  0.3413183710506709  0.5524997813731241   T   T   T
  0.8588515428372531  0.2974983477077187  0.5500839083941202   T   T   T
  0.4489299210246976  0.1834743328909006  0.3859426089656460   T   T   T
  0.5545231984059639  0.1943296349692809  0.3732781382958248   T   T   T
  0.4266939526821229  0.9639055037102987  0.4512342847343345   T   T   T
  0.3160305514690218  0.9909133530485529  0.4561154172851395   T   T   T
  0.3559526945817806  0.1450125464106377  0.3003404687959770   T   T   T
  0.1756422260614381  0.0254626807408873  0.5954514541013123   T   T   T
  0.8035420228048706  0.6330785044648974  0.2850598196693110   T   T   T
  0.9151775192215010  0.3209369221050935  0.6463371733442210   T   T   T
  0.2474212599331403  0.2013888419307121  0.5498650468157863   T   T   T
  0.3661671592549648  0.9683772778540204  0.5162730266737460   T   T   T
  0.2991331721900746  0.9521425300155995  0.5578969159744456   T   T   T
  0.8015621482047979  0.0606827764455262  0.6231338480569996   T   T   T
  0.2471292828824098  0.0158185067023605  0.3414146208953409   T   T   T
  0.2720835805183148  0.1180219260823928  0.3540941374194712   T   T   T
  0.9358804732044897  0.8097692885256075  0.2984385974223777   T   T   T
  0.9669411389418110  0.7503757997862595  0.3442149908073682   T   T   T
  0.3739521220146245  0.4194926975583175  0.3014950524725444   T   T   T
  0.1772671596596977  0.8719880846494689  0.5936294094535547   T   T   T
  0.1643253455225686  0.2752038913469752  0.6812659532735242   T   T   T
  0.6131903252384981  0.1270442430947197  0.6696344645340219   T   T   T
  0.6011942075734402  0.2222104379652160  0.6452126738272737   T   T   T
  0.0315163609012342  0.9980033929669664  0.6324255661387835   T   T   T
  0.9489075202496677  0.9537551342857765  0.6063002305565680   T   T   T
  0.5749991926184223  0.4748343676912246  0.4925791196744320   T   T   T
  0.5868568343797808  0.5703254140393322  0.5201939803670103   T   T   T
  0.8839422270128914  0.4018679165595985  0.5046453887442633   T   T   T
  0.9523493775931047  0.3304914769088703  0.4824418916874899   T   T   T
  0.2270076878041812  0.3647625373827926  0.3115336191394819   T   T   T
  0.1633025147538180  0.2895705946438146  0.2903431745445212   T   T   T
  0.9947118220200064  0.2926465470687293  0.6113884343986481   T   T   T
  0.6245842663216541  0.1935192002177760  0.5521751724883068   T   T   T
  0.5974945570676156  0.1430656268780985  0.5071267808313121   T   T   T
  0.9824877224800247  0.9101382498522875  0.5317093631186669   T   T   T
  0.1218509081103385  0.7134877994694746  0.5112568888479145   T   T   T
  0.0439977039702694  0.7874564682665388  0.5076512714835998   T   T   T
  0.8799943257494940  0.0327841635830913  0.6553584808241482   T   T   T
  0.7409416609370297  0.0897788337096104  0.2818824130019160   T   T   T
  0.2255825465897643  0.5591797228933366  0.5045474644860817   T   T   T
  0.2523015446996520  0.8143157258864321  0.6938452053075156   T   T   T
  0.1908994422337811  0.8908682115064590  0.7086498504628479   T   T   T
  0.3810403063485164  0.1589595401481553  0.5950560248270151   T   T   T
  0.3581824617714272  0.0887280834375225  0.5592605398494037   T   T   T
  0.0661403714584071  0.6446222797637324  0.5657016624855075   T   T   T
  0.0641315847458649  0.6853020574847085  0.6075827038699338   T   T   T
  0.3669070328300660  0.8199454620062100  0.4639303851396432   T   T   T
  0.4177969816525799  0.7285205247835503  0.4526749142582822   T   T   T
  0.7648671943305043  0.5722025626530171  0.4075639105353170   T   T   T
  0.7698134503910137  0.5907821522598313  0.3570541600875917   T   T   T
  0.7651435834854304  0.1694437634576334  0.4782701892625824   T   T   T
  0.7137688981672392  0.0079206906919662  0.6749146327469627   T   T   T
  0.2299803709887444  0.4468354410264178  0.5853363158597743   T   T   T
  0.2375573687290145  0.3504619252925129  0.5580753873395496   T   T   T
  0.0649251128984882  0.2660783079637656  0.4284971631486023   T   T   T
  0.0332721763737690  0.3662900870604044  0.4295589900062098   T   T   T
  0.9149880612104002  0.5447364057072501  0.5971680445358586   T   T   T
  0.4958866788925261  0.9032902769320749  0.6300898082029447   T   T   T
  0.5983083112406110  0.6705044916331426  0.5786161493747481   T   T   T
  0.0305975174204767  0.9469296926308322  0.4067173406987548   T   T   T
  0.9818471128969211  0.0164004685389500  0.4353007046545821   T   T   T
  0.7547927831919803  0.6251603660079215  0.6058441842497967   T   T   T
  0.6887085029974340  0.6638357489573288  0.6435757877977040   T   T   T
  0.3759387557777366  0.1241487031152582  0.6741166222232476   T   T   T
  0.1275044921333567  0.5411688177417450  0.6115860199868690   T   T   T
  0.1354893810151636  0.4463463628508098  0.6342249970788790   T   T   T
  0.4873237800985346  0.4361179188834265  0.4423867480544467   T   T   T
  0.5548129670310022  0.3475949505981514  0.4552817157377785   T   T   T
  0.3159823739222639  0.5043444105063728  0.2865377464129623   T   T   T
  0.1602395786339499  0.9247513994283063  0.5505627596981403   T   T   T
  0.3577832530078617  0.5118754574542497  0.4088831722747387   T   T   T
  0.3575457854482049  0.4060962713112405  0.4239701801795098   T   T   T
  0.0947891793018433  0.2806472580756421  0.5722788859299964   T   T   T
  0.4235787021619523  0.4387327576638130  0.5782522767842502   T   T   T
  0.5342572647739574  0.4634657397832601  0.5686978389302511   T   T   T
  0.7254778119233081  0.7695129739084542  0.5843760086943803   T   T   T
  0.6903457971922696  0.8647840469358614  0.5680749867952706   T   T   T
  0.1655932750380658  0.1017551719089877  0.6588894544327483   T   T   T
  0.1505283571214116  0.0948998355167462  0.7096552145135570   T   T   T
  0.2422822921877073  0.6222989683067884  0.3834311249155709   T   T   T
  0.3043956818833649  0.6897957912275714  0.4087995037850081   T   T   T
  0.7648835538988700  0.0834154090510457  0.5352271208037214   T   T   T
  0.5278076343968170  0.7512446396837256  0.5629388797310947   T   T   T
  0.5463239002478291  0.7401246092654650  0.4099505022137986   T   T   T
  0.5943443061175254  0.7036830499809485  0.4489912010870934   T   T   T
  0.2901128211280850  0.7126547362984941  0.4932297566019327   T   T   T
  0.2784239273757206  0.6898373426819647  0.5387803487795548   T   T   T
  0.1363754737677929  0.4693129465338423  0.4556053849724415   T   T   T
  0.1143039257925531  0.4779409223089294  0.4086803632930333   T   T   T
  0.0148459912184611  0.6691062901363661  0.4557006973823050   T   T   T
  0.0228291930624728  0.5636721539076425  0.4398341167705923   T   T   T
  0.7513298675138549  0.0347270954892480  0.3273739088600261   T   T   T
  0.5321080330929856  0.9038969515215904  0.5728950700690583   T   T   T
  0.4354129224966563  0.8810647657813292  0.5621290252833532   T   T   T
  0.2219629412077573  0.4574509575200630  0.5194061002351871   T   T   T
  0.2994690947345271  0.2291253373699916  0.3130631418337104   T   T   T
  0.7173233551547084  0.7502600599870584  0.3025797083266640   T   T   T
  0.0069764851013250  0.8863984349987678  0.3414879621172871   T   T   T
  0.1154365435306530  0.9215455869512235  0.3436938971827181   T   T   T
  0.2325525811618275  0.8782414121212904  0.2910451505045448   T   T   T
  0.2809014436297277  0.8496315121237630  0.3315244087569485   T   T   T
  0.5318299265394479  0.9087341619472853  0.3950998928615048   T   T   T
  0.1997583937572593  0.4709239868115500  0.3515405290713076   T   T   T
  0.0999956644511718  0.5170113360602676  0.3374106266177923   T   T   T
  0.3679050766385678  0.7537232199152670  0.6509454125859406   T   T   T
  0.3974899517181405  0.8541429780732651  0.6659082057738653   T   T   T
  0.3335529351483866  0.6109513576022308  0.6096421955657906   T   T   T
  0.4070829713690334  0.6748241744413734  0.5847475697252468   T   T   T
  0.2260865098192437  0.2567286710564199  0.4539391401924525   T   T   T
  0.4671066348921999  0.1544356953485510  0.6488881561700601   T   T   T
  0.5291683295799217  0.0146469834837988  0.3984914244127179   T   T   T
  0.5503005116373962  0.3035380378843833  0.3212500267894204   T   T   T
  0.8446283405628473  0.1150051403285250  0.4267747923066823   T   T   T
  0.9488746976912129  0.3214437700027392  0.3752050775424374   T   T   T
  0.7078435368117116  0.2741667847667582  0.5833479981827541   T   T   T
  0.8433136794112596  0.7034463065352644  0.3211347204404126   T   T   T
  0.8315056868683616  0.0069268955680669  0.4254025242713234   T   T   T
  0.8674022164646517  0.3434373573471198  0.3539477400999961   T   T   T
  0.4901001258377156  0.3390224724067714  0.2831687961138388   T   T   T
  0.7195573461390052  0.7839200103343980  0.5072895603569224   T   T   T
  0.8603518473383441  0.9876134731384492  0.5576311317896704   T   T   T
  0.8435850290990927  0.8755332202994135  0.5657934237546377   T   T   T
  0.7267512999736025  0.4573234736069461  0.5235747462033999   T   T   T
  0.7915717617170965  0.5268187062947304  0.4994331008228214   T   T   T
  0.7708363831035483  0.4272135254215700  0.3939743074101698   T   T   T
  0.7460022971164976  0.9045129800068039  0.3989469451585588   T   T   T
  0.6735839043239601  0.9460784091307638  0.4242556058790302   T   T   T
  0.0311834659403711  0.9381898647698985  0.4857434343342223   T   T   T
  0.4247064143105742  0.7038618866668633  0.7098578024683886   T   T   T
  0.4354927577356508  0.6011295452496155  0.6999113974748867   T   T   T
  0.5870129114197505  0.6681349874882623  0.7107723589202906   T   T   T
  0.6939652983697571  0.7052840639830269  0.7132200059686579   T   T   T
  0.9570119596253539  0.4963948138111042  0.2898234051683002   T   T   T
  0.9630338259471594  0.4377240528619434  0.3289094118556962   T   T   T
  0.6789941622541310  0.1820657351917173  0.3321411911602195   T   T   T
  0.1522805811133376  0.0089426739029617  0.4372740529112685   T   T   T
  0.6128285351642400  0.3244451311066572  0.5893695011917998   T   T   T
  0.8302383727169839  0.1587659848977873  0.5574152652651918   T   T   T
  0.9914595193668676  0.6428127085034570  0.3862967023238553   T   T   T
  0.9936072079921922  0.6126387284582350  0.3356124118560708   T   T   T
  0.7195949966335936  0.8248031849572551  0.4603799266985952   T   T   T
  0.8318344459100759  0.4989719380229286  0.5732188827485037   T   T   T
  0.6830065091752007  0.2665168832504379  0.3647320912000082   T   T   T
  0.4136043404669933  0.2355246798068287  0.5354648627489490   T   T   T
  0.4762542232004027  0.3257106504683178  0.5419118149134602   T   T   T
  0.7737491187943770  0.6624704666622551  0.4641345847546255   T   T   T
  0.8674309331468483  0.6142563561829706  0.4537391988764847   T   T   T
  0.3187568658290287  0.7007875171871406  0.3244241579562409   T   T   T
  0.3708596458461286  0.7602447852102506  0.2882172988407117   T   T   T
  0.2278574854062251  0.0452420532257541  0.4057952887692026   T   T   T
  0.8601224283539550  0.2654695800890203  0.5964197741793762   T   T   T
  0.7761770386986254  0.3410253485544835  0.4219500720561897   T   T   T
  0.6287877298848549  0.0323086912045444  0.5675849647014544   T   T   T
  0.6486802127331975  0.9846592852531310  0.6106874380209982   T   T   T
  0.0522516058676112  0.8603697166626079  0.6302701168401901   T   T   T
  0.1122052328329415  0.8006487129883042  0.6606418751229086   T   T   T
  0.6347352898270353  0.7984403453281528  0.2765637469321948   T   T   T
  0.1769619610641523  0.2246887754592186  0.5145418614877860   T   T   T
  0.6136041804586108  0.9715095891902156  0.6761850520467837   T   T   T
 
  0.00000000E+00  0.00000000E+00  0.00000000E+00
  0.00000000E+00  0.00000000E+00  0.00000000E+00
  0.00000000E+00  0.00000000E+00  0.00000000E+00
  0.00000000E+00  0.00000000E+00  0.00000000E+00
  0.00000000E+00  0.00000000E+00  0.00000000E+00
  0.00000000E+00  0.00000000E+00  0.00000000E+00
  0.00000000E+00  0.00000000E+00  0.00000000E+00
  0.00000000E+00  0.00000000E+00  0.00000000E+00
  0.00000000E+00  0.00000000E+00  0.00000000E+00
  0.00000000E+00  0.00000000E+00  0.00000000E+00
  0.00000000E+00  0.00000000E+00  0.00000000E+00
  0.00000000E+00  0.00000000E+00  0.00000000E+00
  0.00000000E+00  0.00000000E+00  0.00000000E+00
  0.00000000E+00  0.00000000E+00  0.00000000E+00
  0.00000000E+00  0.00000000E+00  0.00000000E+00
  0.00000000E+00  0.00000000E+00  0.00000000E+00
  0.00000000E+00  0.00000000E+00  0.00000000E+00
  0.00000000E+00  0.00000000E+00  0.00000000E+00
  0.00000000E+00  0.00000000E+00  0.00000000E+00
  0.00000000E+00  0.00000000E+00  0.00000000E+00
  0.00000000E+00  0.00000000E+00  0.00000000E+00
  0.00000000E+00  0.00000000E+00  0.00000000E+00